ipopt.out

******************************************************************************
This program contains Ipopt, a library for large-scale nonlinear optimization.
 Ipopt is released as open source code under the Eclipse Public License (EPL).
         For more information visit http://projects.coin-or.org/Ipopt
******************************************************************************

This is Ipopt version trunk, running with linear solver mumps.
NOTE: Other linear solvers might be more efficient (see Ipopt documentation).

Number of nonzeros in equality constraint Jacobian...:   330624
Number of nonzeros in inequality constraint Jacobian.:        0
Number of nonzeros in Lagrangian Hessian.............:        0

Total number of variables............................:      656
                     variables with only lower bounds:        0
                variables with lower and upper bounds:      656
                     variables with only upper bounds:        0
Total number of equality constraints.................:      504
Total number of inequality constraints...............:        0
        inequality constraints with only lower bounds:        0
   inequality constraints with lower and upper bounds:        0
        inequality constraints with only upper bounds:        0

iter    objective    inf_pr   inf_du lg(mu)  ||d||  lg(rg) alpha_du alpha_pr  ls
   0  6.4897717e-01 1.81e+00 6.12e-02   0.0 0.00e+00    -  0.00e+00 0.00e+00   0
   1  1.1375351e+00 9.77e-07 8.92e-01  -1.0 8.93e-01    -  9.90e-01 1.00e+00h  1
   2  1.1292344e+00 5.10e-07 5.06e-02  -3.0 5.99e-01    -  9.90e-01 5.00e-01f  2
   3  1.1292344e+00 5.10e-07 5.06e-02  -1.1 1.45e+00    -  9.98e-01 3.64e-12h 39
   4  1.1292348e+00 5.10e-07 5.06e-02  -1.1 4.35e-02   0.0 1.00e+00 6.10e-05h 15
   5  1.1292348e+00 5.10e-07 5.06e-02  -1.8 1.50e-01  -0.5 1.00e+00 2.91e-11h 36
   6  1.1292348e+00 5.10e-07 5.06e-02  -2.7 2.58e-01    -  1.00e+00 1.82e-12h 40
Restoration phase is called at point that is almost feasible,
  with constraint violation 8.449663e-07. Abort.

Number of Iterations....: 6

                                   (scaled)                 (unscaled)
Objective...............:   1.1292347941489604e+00    1.1292347941489604e+00
Dual infeasibility......:   5.0612413482912594e-02    5.0612413482912594e-02
Constraint violation....:   4.8792204832004415e-08    5.1009504009602580e-07
Complementarity.........:   2.0321263378799736e-03    2.0321263378799736e-03
Overall NLP error.......:   5.0612413482912594e-02    5.0612413482912594e-02


Number of objective function evaluations             = 196
Number of objective gradient evaluations             = 8
Number of equality constraint evaluations            = 196
Number of inequality constraint evaluations          = 0
Number of equality constraint Jacobian evaluations   = 8
Number of inequality constraint Jacobian evaluations = 0
Number of Lagrangian Hessian evaluations             = 0
Total CPU secs in IPOPT (w/o function evaluations)   =      7.735
Total CPU secs in NLP function evaluations           =      2.071

EXIT: Restoration Failed!
